BAYES
5
2 2 2 2 2
5
2 0 1
1 1
3 0 1 2
4 0 1 2 3
4 0 2 3 4

4
1.0 0.0 0.8666666666666667 0.1333333333333333

2
1.0 0.0

8
0.4 0.6 1.0 0.0 1.0 0.0 0.4666666666666667 0.5333333333333333

16
0.9333333333333333 0.06666666666666665 0.6 0.4 0.6666666666666666 0.33333333333333337 0.06666666666666667 0.9333333333333333 0.0 1.0 1.0 0.0 0.6666666666666666 0.33333333333333337 0.9333333333333333 0.06666666666666665

16
0.9333333333333333 0.06666666666666665 0.6666666666666666 0.33333333333333337 0.2 0.8 0.2 0.8 0.4 0.6 0.3333333333333333 0.6666666666666667 0.4 0.6 0.4666666666666667 0.5333333333333333

